Version identifier: 22.1.0.0 | 2022-03-09 | 1a383f8ce
CPXPARAM_Threads                                 1
CPXPARAM_MIP_Strategy_VariableSelect             3
CPXPARAM_TimeLimit                               588.61169359999997
1 of 1 MIP starts provided solutions.
MIP start 'm1' defined initial solution with objective 474.0000.
Tried aggregator 2 times.
MIP Presolve eliminated 43 rows and 1 columns.
MIP Presolve added 36 rows and 9 columns.
MIP Presolve modified 52 coefficients.
Aggregator did 9 substitutions.
Reduced MIP has 4505 rows, 10500 columns, and 213226 nonzeros.
Reduced MIP has 10500 binaries, 0 generals, 0 SOSs, and 0 indicators.
Presolve time = 0.29 sec. (406.25 ticks)
Probing time = 0.03 sec. (24.63 ticks)
Tried aggregator 1 time.
Detecting symmetries...
MIP Presolve modified 16 coefficients.
Reduced MIP has 4505 rows, 10500 columns, and 213394 nonzeros.
Reduced MIP has 10500 binaries, 0 generals, 0 SOSs, and 0 indicators.
Presolve time = 0.21 sec. (323.01 ticks)
Probing time = 0.03 sec. (24.64 ticks)
Clique table members: 3490.
MIP emphasis: balance optimality and feasibility.
MIP search method: dynamic search.
Parallel mode: none, using 1 thread.
Root relaxation solution time = 4.42 sec. (4827.05 ticks)

        Nodes                                         Cuts/
   Node  Left     Objective  IInf  Best Integer    Best Bound    ItCnt     Gap

*     0+    0                          474.0000   125250.0000              --- 
      0     0      500.0000  2071      474.0000      500.0000     9758    5.49%
*     0+    0                          499.0000      500.0000             0.20%
      0     0        cutoff            499.0000      500.0000     9758    0.20%
Detecting symmetries...
      0     2      500.0000    20      499.0000      500.0000     9758    0.20%
Elapsed time = 30.88 sec. (27530.75 ticks, tree = 0.01 MB, solutions = 2)
      1     3      500.0000   342      499.0000      500.0000    25252    0.20%
      2     4      500.0000   167      499.0000      500.0000    28042    0.20%
      3     5      500.0000   250      499.0000      500.0000    35311    0.20%
      4     6      500.0000   199      499.0000      500.0000    35594    0.20%
      5     7      500.0000   209      499.0000      500.0000    35992    0.20%
      6     8      500.0000   184      499.0000      500.0000    43216    0.20%
      7     9      500.0000   247      499.0000      500.0000    49831    0.20%
      8    10      500.0000   166      499.0000      500.0000    50817    0.20%
      9    11      500.0000   161      499.0000      500.0000    52529    0.20%
     10    12      500.0000   175      499.0000      500.0000    59001    0.20%
Elapsed time = 58.32 sec. (51321.24 ticks, tree = 0.21 MB, solutions = 2)
     12    14      500.0000   164      499.0000      500.0000    61054    0.20%
     14    16      500.0000   144      499.0000      500.0000    67554    0.20%
     15    17      500.0000   429      499.0000      500.0000    78415    0.20%
     17    19      500.0000   145      499.0000      500.0000    82533    0.20%
     18    20      500.0000   152      499.0000      500.0000    84533    0.20%
     19    21      500.0000   201      499.0000      500.0000    90840    0.20%
     21    21      500.0000   202      499.0000      500.0000    98141    0.20%
     23    23      500.0000   139      499.0000      500.0000   101861    0.20%
     26    26      500.0000   176      499.0000      500.0000   103212    0.20%
     29    29      500.0000   145      499.0000      500.0000   107191    0.20%
Elapsed time = 83.20 sec. (72856.44 ticks, tree = 0.79 MB, solutions = 2)
     31    31      500.0000   153      499.0000      500.0000   108927    0.20%
     33    33      500.0000   151      499.0000      500.0000   112931    0.20%
     35    35      500.0000   135      499.0000      500.0000   114554    0.20%
     37    37      500.0000   143      499.0000      500.0000   117581    0.20%
     39    39      500.0000   143      499.0000      500.0000   120157    0.20%
     41    41      500.0000   142      499.0000      500.0000   124979    0.20%
     43    43      500.0000   142      499.0000      500.0000   128310    0.20%
     45    45      500.0000   136      499.0000      500.0000   130941    0.20%
     47    47      500.0000   127      499.0000      500.0000   132974    0.20%
     50    50      500.0000    99      499.0000      500.0000   133547    0.20%
Elapsed time = 96.79 sec. (84000.91 ticks, tree = 1.57 MB, solutions = 2)
     52    52      500.0000   201      499.0000      500.0000   138756    0.20%
     53    53      500.0000    90      499.0000      500.0000   140528    0.20%
     54    54      500.0000    90      499.0000      500.0000   147474    0.20%
     55    55      500.0000    84      499.0000      500.0000   150293    0.20%
     57    57      500.0000    82      499.0000      500.0000   152081    0.20%
     60    60      500.0000    72      499.0000      500.0000   153301    0.20%
     61    61      500.0000   172      499.0000      500.0000   159618    0.20%
     62    62      500.0000   126      499.0000      500.0000   160822    0.20%
     64    64      500.0000   113      499.0000      500.0000   162600    0.20%
     65    65      500.0000    92      499.0000      500.0000   164455    0.20%
Elapsed time = 114.14 sec. (100215.54 ticks, tree = 2.19 MB, solutions = 2)
     67    67      500.0000   119      499.0000      500.0000   167120    0.20%
     68    68      500.0000   116      499.0000      500.0000   169731    0.20%
     69    69      500.0000   224      499.0000      500.0000   172261    0.20%
     70    70      500.0000   134      499.0000      500.0000   172283    0.20%
     71    71      500.0000   224      499.0000      500.0000   177948    0.20%
     73    73      500.0000   113      499.0000      500.0000   178748    0.20%
     75    75      500.0000   304      499.0000      500.0000   188218    0.20%
     77    77      500.0000   153      499.0000      500.0000   194383    0.20%
     79    79      500.0000   153      499.0000      500.0000   207058    0.20%
     80    80      500.0000    66      499.0000      500.0000   209713    0.20%
Elapsed time = 143.07 sec. (126357.29 ticks, tree = 2.64 MB, solutions = 2)
     81    81      500.0000   455      499.0000      500.0000   218450    0.20%
     82    82      500.0000   123      499.0000      500.0000   220567    0.20%
     83    83      500.0000   383      499.0000      500.0000   235621    0.20%
     85    85      500.0000   226      499.0000      500.0000   238789    0.20%
     87    87      500.0000   164      499.0000      500.0000   240402    0.20%
     90    90      500.0000   112      499.0000      500.0000   241447    0.20%
     91    91      500.0000   554      499.0000      500.0000   257796    0.20%
     93    93      500.0000   234      499.0000      500.0000   264990    0.20%
     95    95      500.0000   144      499.0000      500.0000   272125    0.20%
     97    97      500.0000   256      499.0000      500.0000   281548    0.20%
Elapsed time = 181.82 sec. (160009.31 ticks, tree = 3.13 MB, solutions = 2)
    100   100      500.0000   124      499.0000      500.0000   282816    0.20%
    103   103      500.0000   103      499.0000      500.0000   286492    0.20%
    106   106      500.0000    95      499.0000      500.0000   291401    0.20%
    108   108      500.0000   244      499.0000      500.0000   305556    0.20%
    110   110      500.0000   102      499.0000      500.0000   308327    0.20%
    111   111      500.0000   125      499.0000      500.0000   311755    0.20%
    114   114      500.0000   119      499.0000      500.0000   313925    0.20%
    116   116      500.0000   286      499.0000      500.0000   317466    0.20%
    119   119      500.0000   243      499.0000      500.0000   321062    0.20%
    120   120      500.0000    94      499.0000      500.0000   323254    0.20%
Elapsed time = 230.82 sec. (202518.94 ticks, tree = 3.99 MB, solutions = 2)
    121   121      500.0000   463      499.0000      500.0000   325675    0.20%
    122   122      500.0000   222      499.0000      500.0000   327472    0.20%
    123   123      500.0000   601      499.0000      500.0000   335396    0.20%
    126   126      500.0000   168      499.0000      500.0000   335770    0.20%
    127   127      500.0000   207      499.0000      500.0000   339957    0.20%
    129   129      500.0000   187      499.0000      500.0000   344972    0.20%
    132   132      500.0000   136      499.0000      500.0000   346698    0.20%
    133   133      500.0000   274      499.0000      500.0000   349235    0.20%
    135   135      500.0000   295      499.0000      500.0000   354402    0.20%
    137   137      500.0000   340      499.0000      500.0000   358551    0.20%
Elapsed time = 255.63 sec. (224414.45 ticks, tree = 4.62 MB, solutions = 2)
    139   139      500.0000   314      499.0000      500.0000   359436    0.20%
    141   141      500.0000   302      499.0000      500.0000   359577    0.20%
    142   142      500.0000   523      499.0000      500.0000   363339    0.20%
    145   145      500.0000   280      499.0000      500.0000   370133    0.20%
    146   146      500.0000   703      499.0000      500.0000   381914    0.20%
    148   148      500.0000   414      499.0000      500.0000   389729    0.20%
    151   151      500.0000   198      499.0000      500.0000   393472    0.20%
    154   154      500.0000   199      499.0000      500.0000   395146    0.20%
    156   156      500.0000   265      499.0000      500.0000   400675    0.20%
    159   159      500.0000   190      499.0000      500.0000   401922    0.20%
Elapsed time = 282.39 sec. (246945.25 ticks, tree = 5.45 MB, solutions = 2)
    161   161      500.0000   211      499.0000      500.0000   402792    0.20%
    163   163      500.0000   164      499.0000      500.0000   407821    0.20%
    166   166      500.0000   180      499.0000      500.0000   417130    0.20%
    170   170      500.0000   105      499.0000      500.0000   419827    0.20%
    171   171      500.0000    74      499.0000      500.0000   423799    0.20%
    174   174      500.0000    69      499.0000      500.0000   426312    0.20%
    176   176      500.0000    31      499.0000      500.0000   428164    0.20%
    179   179      500.0000    23      499.0000      500.0000   428910    0.20%
    180   180      500.0000   149      499.0000      500.0000   435178    0.20%
*   183     1      integral     0      500.0000      500.0000   439411    0.00%

Root node processing (before b&c):
  Real time             =   30.77 sec. (27471.68 ticks)
Sequential b&c:
  Real time             =  268.57 sec. (234049.49 ticks)
                          ------------
Total (root+branch&cut) =  299.35 sec. (261521.16 ticks)
Primal:	500
Dual:	500
Status:	Optimal
Time:	299.38
Sequence:
	17
	7
	13
	17
	7
	4
	8
	7
	13
	17
	7
	13
	8
	16
	13
	17
	4
	16
	8
	13
	16
	8
	6
	14
	17
	4
	14
	17
	13
	14
	17
	6
	7
	17
	13
	14
	17
	13
	16
	8
	4
	14
	1
	15
	11
	1
	15
	0
	10
	15
	0
	10
	6
	12
	1
	16
	0
	1
	3
	11
	9
	6
	11
	9
	4
	11
	9
	4
	0
	10
	15
	0
	10
	15
	0
	10
	15
	0
	10
	15
	4
	10
	15
	0
	10
	3
	2
	18
	4
	2
	18
	4
	2
	18
	4
	2
	18
	4
	2
	18
	3
	2
	10
	0
	5
	9
	11
	3
	19
	12
	7
	19
	12
	16
	19
	12
	16
	19
	12
	14
	1
	12
	7
	1
	2
	11
	19
	2
	11
	1
	2
	11
	19
	2
	11
	19
	2
	0
	10
	15
	0
	1
	7
	12
	19
	3
	11
	9
	5
	0
	10
	6
	12
	1
	16
	12
	1
	14
	12
	1
	14
	12
	1
	14
	12
	19
	14
	12
	19
	7
	12
	19
	16
	12
	19
	7
	12
	1
	7
	12
	1
	14
	5
	8
	13
	7
	17
	13
	7
	17
	3
	14
	8
	5
	14
	17
	13
	16
	8
	5
	7
	17
	3
	7
	17
	13
	14
	1
	15
	0
	10
	15
	0
	10
	15
	5
	1
	12
	4
	10
	0
	15
	10
	0
	15
	10
	0
	15
	10
	0
	5
	9
	0
	16
	9
	6
	11
	9
	13
	11
	9
	13
	11
	9
	13
	11
	9
	6
	14
	17
	13
	7
	17
	4
	6
	17
	7
	5
	9
	11
	13
	9
	11
	13
	9
	11
	4
	9
	11
	13
	9
	11
	13
	9
	11
	4
	9
	11
	13
	9
	11
	6
	9
	16
	6
	8
	16
	4
	8
	16
	13
	8
	7
	5
	8
	14
	5
	8
	16
	4
	8
	14
	5
	8
	16
	6
	17
	7
	4
	8
	7
	6
	8
	16
	4
	17
	7
	5
	8
	14
	5
	8
	16
	4
	8
	5
	3
	18
	2
	3
	18
	2
	4
	18
	2
	3
	18
	2
	3
	18
	2
	4
	18
	2
	4
	18
	3
	2
	18
	3
	2
	18
	3
	3
	17
	7
	4
	17
	7
	5
	8
	14
	5
	8
	6
	7
	12
	1
	14
	0
	9
	4
	11
	1
	15
	11
	1
	4
	12
	10
	4
	2
	18
	3
	2
	18
	3
	2
	18
	4
	2
	18
	3
	2
	18
	3
	5
	8
	14
	13
	8
	14
	6
	8
	7
	6
	17
	14
	5
	8
	5
	7
	8
	13
	14
	8
	13
	16
	8
	5
	14
	17
	13
	7
	17
	13
	16
	8
	6
	16
	8
	6
	7
	8
	5
	7
	17
	13
	16
	8
	5
	7
	17
	6
	14
	12
	19
	7
	12
	19
	7
	12
	19
	16
	12
	19
	16
	12
	1
	16
	12
	1
	16
	0
	9
	3
	11
	15
	1
	11
	15
	1
	0
	15
	10
	0
	15
	1
	7
	12
	19
	16
	12
	13
	10
	4
	12
	19
	7
	12
	19
	16
	0
	9
	13
	11
	9
	3
	16
	8
